qbf_easy_train/easy_701_UNSAT.qdimacs
p cnf 49 144
a 25 42 0
e 1 2 3 4 5 6 7 8 9 10 11 12 13 14 15 16 17 18 19 20 21 22 23 24 26 27 28 29 30 31 32 33 34 35 36 37 38 39 40 41 43 44 45 46 47 48 49 0
-1 2 -3 0
1 -2 -3 0
-1 -2 3 0
1 2 3 0
4 5 0
-4 5 0
-6 5 0
-6 2 0
-5 -2 6 0
-8 -6 0
-8 7 0
6 -7 8 0
9 1 0
9 -8 0
-1 8 -9 0
-10 -3 0
-10 -9 0
3 9 10 0
-4 -1 -11 0
4 1 -11 0
-4 1 11 0
4 -1 11 0
12 7 0
12 -7 0
13 12 0
13 1 0
-12 -1 -13 0
13 5 -14 0
-13 -5 -14 0
13 -5 14 0
-13 5 14 0
-15 -2 0
-15 14 0
2 -14 15 0
16 11 0
16 15 0
-11 -15 -16 0
-17 5 0
-17 -11 0
-5 11 17 0
-18 16 0
-18 -17 0
-16 17 18 0
10 18 -19 0
-10 -18 -19 0
10 -18 19 0
-10 18 19 0
-21 20 0
-21 -20 0
23 21 0
23 -22 0
-21 22 -23 0
25 14 0
25 8 0
-14 -8 -25 0
-26 25 0
-26 4 0
-25 -4 26 0
-27 -24 0
-27 26 0
24 -26 27 0
28 -14 0
28 27 0
14 -27 -28 0
-29 23 0
-29 -28 0
-23 28 29 0
30 19 0
30 -29 0
-19 29 -30 0
31 -12 0
31 -12 0
12 -31 0
12 -32 -33 0
-12 32 -33 0
12 32 33 0
-12 -32 33 0
34 31 0
34 -33 0
-31 33 -34 0
-34 -21 -35 0
34 21 -35 0
-34 21 35 0
34 -21 35 0
36 31 0
36 -35 0
-31 35 -36 0
-37 30 0
-37 36 0
-30 -36 37 0
38 -5 0
38 26 0
5 -26 -38 0
-39 38 0
-39 26 0
-38 -26 39 0
40 12 0
40 -8 0
-12 8 -40 0
41 -1 0
41 40 0
1 -40 -41 0
-42 -20 0
-42 -1 0
20 1 42 0
42 -1 -43 0
-42 1 -43 0
42 1 43 0
-42 -1 43 0
44 -43 0
44 5 0
43 -5 -44 0
-41 44 -45 0
41 -44 -45 0
-41 -44 45 0
41 44 45 0
-39 45 -46 0
39 -45 -46 0
-39 -45 46 0
39 45 46 0
-47 -5 0
-47 32 0
5 -32 47 0
48 -46 0
48 -47 0
46 47 -48 0
37 -48 -49 0
-37 48 -49 0
37 48 49 0
-37 -48 49 0
8 -23 -6 -28 -26 0
-47 45 -1 -27 14 0
-25 2 36 -46 44 15 -14 0
-29 -41 -4 14 -48 -16 25 43 0
9 33 -34 -24 -12 14 -39 0
31 43 -48 0
2 -49 -16 -10 4 -18 -37 -1 0
-30 -27 -34 38 -49 25 -21 0
-33 18 45 -19 0
-10 33 -46 38 -21 35 31 -30 0
29 -42 40 46 -5 -35 -8 -4 0
-28 14 0
17 35 -14 -36 -18 0
49 0
