sat_easy_train/easy_701_UNSAT.dimacs
p cnf 144 501
-1 -2 -3 0
1 2 -3 0
-1 2 3 0
1 -2 3 0
5 -6 -7 0
-5 6 -7 0
5 6 7 0
-5 -6 7 0
8 4 0
8 -7 0
-4 7 -8 0
-3 -8 -9 0
3 8 -9 0
-3 8 9 0
3 -8 9 0
-9 -6 -10 0
9 6 -10 0
-9 6 10 0
9 -6 10 0
-6 -11 -12 0
6 11 -12 0
-6 11 12 0
6 -11 12 0
13 -12 0
13 2 0
12 -2 -13 0
15 13 0
15 -14 0
-13 14 -15 0
16 -14 0
16 1 0
14 -1 -16 0
-17 16 0
-17 -8 0
-16 8 17 0
-18 1 0
-18 -17 0
-1 17 18 0
15 -18 -19 0
-15 18 -19 0
15 18 19 0
-15 -18 19 0
20 -10 0
20 19 0
10 -19 -20 0
22 21 0
22 -7 0
-21 7 -22 0
-23 22 0
-23 5 0
-22 -5 23 0
-24 23 0
-24 13 0
-23 -13 24 0
-12 -4 -25 0
12 4 -25 0
-12 4 25 0
12 -4 25 0
26 -6 0
26 25 0
6 -25 -26 0
27 -1 0
27 3 0
1 -3 -27 0
26 27 -28 0
-26 -27 -28 0
26 -27 28 0
-26 27 28 0
30 29 0
30 14 0
-29 -14 -30 0
31 -30 0
31 16 0
30 -16 -31 0
-28 -31 -32 0
28 31 -32 0
-28 31 32 0
28 -31 32 0
-33 24 0
-33 -32 0
-24 32 33 0
-21 -17 -34 0
21 17 -34 0
-21 17 34 0
21 -17 34 0
36 35 0
36 -11 0
-35 11 -36 0
36 37 -38 0
-36 -37 -38 0
36 -37 38 0
-36 37 38 0
13 -36 -39 0
-13 36 -39 0
13 36 39 0
-13 -36 39 0
40 -38 0
40 39 0
38 -39 -40 0
-35 -40 -41 0
35 40 -41 0
-35 40 41 0
35 -40 41 0
42 34 0
42 -41 0
-34 41 -42 0
17 -15 -43 0
-17 15 -43 0
17 15 43 0
-17 -15 43 0
39 35 -44 0
-39 -35 -44 0
39 -35 44 0
-39 35 44 0
-44 -15 -45 0
44 15 -45 0
-44 15 45 0
44 -15 45 0
-46 25 0
-46 -45 0
-25 45 46 0
-43 46 -47 0
43 -46 -47 0
-43 -46 47 0
43 46 47 0
-48 42 0
-48 -47 0
-42 47 48 0
49 11 -50 0
-49 -11 -50 0
49 -11 50 0
-49 11 50 0
14 7 -51 0
-14 -7 -51 0
14 -7 51 0
-14 7 51 0
6 -52 -53 0
-6 52 -53 0
6 52 53 0
-6 -52 53 0
54 -51 0
54 53 0
51 -53 -54 0
-55 -54 0
-55 1 0
54 -1 55 0
-56 -55 0
-56 7 0
55 -7 56 0
-57 56 0
-57 55 0
-56 -55 57 0
-58 -8 0
-58 39 0
8 -39 58 0
-29 58 -59 0
29 -58 -59 0
-29 -58 59 0
29 58 59 0
28 -59 -60 0
-28 59 -60 0
28 59 60 0
-28 -59 60 0
61 37 0
61 11 0
-37 -11 -61 0
37 61 -62 0
-37 -61 -62 0
37 -61 62 0
-37 61 62 0
63 62 0
63 6 0
-62 -6 -63 0
-64 60 0
-64 63 0
-60 -63 64 0
-57 -64 -65 0
57 64 -65 0
-57 64 65 0
57 -64 65 0
-12 65 -66 0
12 -65 -66 0
-12 -65 66 0
12 65 66 0
67 -50 0
67 -66 0
50 66 -67 0
-68 -35 0
-68 53 0
35 -53 68 0
69 -68 0
69 14 0
68 -14 -69 0
70 59 0
70 69 0
-59 -69 -70 0
71 -67 0
71 70 0
67 -70 -71 0
-34 21 -72 0
34 -21 -72 0
-34 -21 72 0
34 21 72 0
73 5 0
73 -72 0
-5 72 -73 0
-74 73 0
-74 -36 0
-73 36 74 0
75 71 0
75 74 0
-71 -74 -75 0
76 -4 0
76 13 0
4 -13 -76 0
77 -75 0
77 76 0
75 -76 -77 0
78 4 0
78 12 0
-4 -12 -78 0
25 -78 -79 0
-25 78 -79 0
25 78 79 0
-25 -78 79 0
80 -77 0
80 -79 0
77 79 -80 0
81 -39 0
81 -55 0
39 55 -81 0
83 -13 0
83 -82 0
13 82 -83 0
-84 82 0
-84 -83 0
-82 83 84 0
-85 -81 0
-85 84 0
81 -84 85 0
-86 29 0
-86 63 0
-29 -63 86 0
-86 82 -87 0
86 -82 -87 0
-86 -82 87 0
86 82 87 0
85 -87 -88 0
-85 87 -88 0
85 87 88 0
-85 -87 88 0
89 -53 0
89 29 0
53 -29 -89 0
-91 -89 0
-91 90 0
89 -90 91 0
23 -89 -92 0
-23 89 -92 0
23 89 92 0
-23 -89 92 0
-93 91 0
-93 92 0
-91 -92 93 0
-35 -13 -94 0
35 13 -94 0
-35 13 94 0
35 -13 94 0
95 94 0
95 -82 0
-94 82 -95 0
29 -13 -96 0
-29 13 -96 0
29 13 96 0
-29 -13 96 0
97 95 0
97 96 0
-95 -96 -97 0
-98 93 0
-98 97 0
-93 -97 98 0
88 98 -99 0
-88 -98 -99 0
88 -98 99 0
-88 98 99 0
100 29 0
100 89 0
-29 -89 -100 0
101 -99 0
101 100 0
99 -100 -101 0
80 -101 -102 0
-80 101 -102 0
80 101 102 0
-80 -101 102 0
-103 48 0
-103 -102 0
-48 102 103 0
90 23 -104 0
-90 -23 -104 0
90 -23 104 0
-90 23 104 0
-105 -72 0
-105 104 0
72 -104 105 0
9 -7 -106 0
-9 7 -106 0
9 7 106 0
-9 -7 106 0
-107 106 0
-107 -35 0
-106 35 107 0
105 107 -108 0
-105 -107 -108 0
105 -107 108 0
-105 107 108 0
109 -1 0
109 -15 0
1 15 -109 0
110 -108 0
110 109 0
108 -109 -110 0
103 110 -111 0
-103 -110 -111 0
103 -110 111 0
-103 110 111 0
-104 -25 -112 0
104 25 -112 0
-104 25 112 0
104 -25 112 0
112 -6 -113 0
-112 6 -113 0
112 6 113 0
-112 -6 113 0
114 39 0
114 22 0
-39 -22 -114 0
-115 23 0
-115 114 0
-23 -114 115 0
-116 62 0
-116 -14 0
-62 14 116 0
117 -115 0
117 -116 0
115 116 -117 0
113 117 -118 0
-113 -117 -118 0
113 -117 118 0
-113 117 118 0
-119 -111 0
-119 118 0
111 -118 119 0
-51 44 -120 0
51 -44 -120 0
-51 -44 120 0
51 44 120 0
11 -58 -121 0
-11 58 -121 0
11 58 121 0
-11 -58 121 0
72 -121 -122 0
-72 121 -122 0
72 121 122 0
-72 -121 122 0
123 -120 0
123 122 0
120 -122 -123 0
-124 119 0
-124 123 0
-119 -123 124 0
125 -55 0
125 14 0
55 -14 -125 0
53 -90 -126 0
-53 90 -126 0
53 90 126 0
-53 -90 126 0
127 4 0
127 63 0
-4 -63 -127 0
-126 -127 -128 0
126 127 -128 0
-126 127 128 0
126 -127 128 0
-129 -11 0
-129 -23 0
11 23 129 0
2 130 -131 0
-2 -130 -131 0
2 -130 131 0
-2 130 131 0
132 -129 0
132 -131 0
129 131 -132 0
6 86 -133 0
-6 -86 -133 0
6 -86 133 0
-6 86 133 0
-134 -15 0
-134 -133 0
15 133 134 0
-135 49 0
-135 -26 0
-49 26 135 0
134 135 -136 0
-134 -135 -136 0
134 -135 136 0
-134 135 136 0
137 -2 0
137 -54 0
2 54 -137 0
-138 136 0
-138 -137 0
-136 137 138 0
-132 138 -139 0
132 -138 -139 0
-132 -138 139 0
132 138 139 0
-140 128 0
-140 139 0
-128 -139 140 0
-141 -125 0
-141 -140 0
125 140 141 0
-142 124 0
-142 141 0
-124 -141 142 0
-143 -33 0
-143 -142 0
33 142 143 0
20 143 -144 0
-20 -143 -144 0
20 -143 144 0
-20 143 144 0
-20 -71 -6 -62 -135 0
100 58 125 0
59 74 35 -41 89 0
82 25 52 0
-57 63 -119 0
-41 86 0
123 77 0
141 -31 0
61 75 0
104 -11 0
108 -2 -121 -37 -20 78 0
24 -60 27 15 0
133 -87 124 38 116 0
-88 3 -107 -45 43 0
-66 -140 97 -4 -23 -82 0
-4 -33 -31 130 142 -116 0
78 -118 -106 0
-35 49 14 -97 81 0
99 16 0
-109 -6 0
115 -136 0
-18 64 -52 -121 0
133 61 67 0
-91 99 0
105 -11 67 -24 0
-60 121 -63 0
54 73 -39 63 -10 81 0
82 106 86 -144 -32 0
-93 -35 -112 7 39 0
-20 -112 -75 139 -5 0
127 -35 -81 0
56 -81 23 -43 0
-60 61 -10 -70 30 0
-106 40 -126 -30 0
130 -102 -18 -73 -97 10 0
-2 -48 0
81 -124 0
-35 114 -50 -28 -103 -106 0
55 -57 33 -129 85 0
-133 83 82 129 28 -92 0
51 126 0
-129 125 143 -39 28 -12 0
75 1 0
80 62 136 -26 -70 0
-23 135 100 110 0
-40 129 -36 0
51 -92 124 0
9 5 114 -95 0
-76 85 -100 69 0
-140 -43 -99 0
-85 27 56 -22 0
65 83 0
112 -36 108 116 141 0
60 -118 90 -126 0
-137 84 106 117 -122 -103 0
114 -27 -44 0
103 -46 1 -19 133 0
4 102 -121 11 0
-108 28 143 -131 -6 0
41 -80 0
-28 85 0
-18 -56 65 0
-103 135 -60 -116 -15 43 0
-124 -136 -14 20 0
117 91 -124 42 -5 -93 0
144 0
